NAME          COPTPROB
OBJSENSE
  MIN
ROWS
 N  __OBJ___
 L  C42     
 L  C103    
 L  C199    
 L  C453    
 L  C809    
COLUMNS
    MARKER    'MARKER'                 'INTORG'
    x139      __OBJ___  -1
    x139      C453      1
    x139      C809      1
    x148      __OBJ___  -1
    x148      C42       1
    x148      C809      1
    x201      __OBJ___  -1
    x201      C103      1
    x201      C199      1
    x285      __OBJ___  -1
    x285      C103      1
    x285      C453      1
    x535      __OBJ___  -1
    x535      C42       1
    x535      C199      1
    MARKER    'MARKER'                 'INTEND'
RHS
    RHS       __OBJ___  348
    RHS       C42       1
    RHS       C103      1
    RHS       C199      1
    RHS       C453      1
    RHS       C809      1
BOUNDS
 UP BOUND     x139      1
 UP BOUND     x148      1
 UP BOUND     x201      1
 UP BOUND     x285      1
 UP BOUND     x535      1
ENDATA
